% seed = 8935995

mint = 53;
% maxt = 177;

nActs = 42;
dur = [0,9,2,2,1,3,1,7,5,4,1,4,5,5,1,2,3,3,10,1,3,10,2,5,3,10,3,6,4,8,10,7,5,3,2,7,2,2,2,7,7,0];

nSkills = 4;
sreq = [| 0,0,0,0,
	| 0,0,3,4,
	| 5,0,4,0,
	| 0,2,1,0,
	| 4,0,5,0,
	| 0,0,7,3,
	| 0,6,0,7,
	| 0,5,0,3,
	| 0,3,1,0,
	| 7,2,0,0,
	| 5,0,0,5,
	| 0,3,0,2,
	| 0,3,0,1,
	| 0,2,0,7,
	| 0,4,5,0,
	| 0,2,0,7,
	| 0,0,2,4,
	| 0,5,5,0,
	| 0,2,3,0,
	| 0,3,2,0,
	| 2,7,0,0,
	| 0,5,0,2,
	| 0,2,0,3,
	| 4,0,0,5,
	| 3,3,0,0,
	| 1,2,0,0,
	| 5,0,0,5,
	| 0,4,0,3,
	| 3,0,0,6,
	| 0,3,2,0,
	| 0,7,0,4,
	| 5,2,0,0,
	| 0,7,0,7,
	| 0,0,1,4,
	| 0,4,0,5,
	| 3,0,4,0,
	| 0,0,6,7,
	| 5,7,0,0,
	| 0,1,0,6,
	| 7,0,4,0,
	| 3,0,0,7,
	| 0,0,0,0, |];

nResources = 30;
mastery = [| true,false,true,true,
	| true,true,true,false,
	| true,false,true,true,
	| true,true,false,true,
	| false,true,true,false,
	| true,false,false,false,
	| false,false,false,true,
	| true,false,false,false,
	| false,true,true,false,
	| true,true,true,false,
	| true,true,false,true,
	| false,true,false,false,
	| false,true,true,true,
	| true,false,false,false,
	| false,false,false,true,
	| false,false,true,true,
	| false,true,true,true,
	| false,true,true,true,
	| true,false,false,false,
	| false,true,false,false,
	| true,true,true,false,
	| false,false,true,true,
	| true,true,true,false,
	| true,false,false,true,
	| false,true,true,true,
	| false,true,true,false,
	| true,false,false,false,
	| true,false,true,false,
	| true,true,true,false,
	| false,true,true,false, |];

nPrecs = 61;
pred = [1,1,1,2,2,2,3,3,3,4,4,4,5,5,6,7,7,7,8,8,9,9,9,10,10,11,11,12,13,13,14,14,15,16,17,17,18,19,20,21,22,23,24,25,26,27,28,29,30,31,32,33,34,35,36,37,37,38,39,40,41];
succ = [2,3,4,10,15,7,18,11,12,9,5,6,13,8,35,25,14,30,37,16,19,22,23,21,39,33,21,31,17,24,34,27,20,24,26,28,30,35,36,28,24,29,38,41,37,28,30,39,32,40,36,36,38,38,41,39,40,41,42,42,42];

nUnrels = 583;
unpred = [2,2,2,2,2,2,2,2,2,2,2,2,2,2,2,2,2,2,2,2,2,2,2,3,3,3,3,3,3,3,3,3,3,3,3,3,3,3,3,3,3,3,3,3,3,3,3,3,3,4,4,4,4,4,4,4,4,4,4,4,4,4,4,5,5,5,5,5,5,5,5,5,5,5,5,5,5,5,5,5,5,5,5,5,6,6,6,6,6,6,6,6,6,6,6,6,6,6,6,6,6,6,6,6,6,6,6,6,6,6,6,6,6,6,6,6,7,7,7,7,7,7,7,7,7,7,7,7,7,7,7,7,7,7,7,7,7,7,7,7,8,8,8,8,8,8,8,8,8,8,8,8,8,8,8,8,8,8,8,8,8,8,8,8,8,8,9,9,9,9,9,9,9,9,9,9,9,9,9,9,9,9,9,9,9,9,9,9,9,10,10,10,10,10,10,10,10,10,10,10,10,10,10,10,10,10,10,10,10,10,10,10,10,11,11,11,11,11,11,11,11,11,11,11,11,11,11,11,11,11,11,11,11,11,11,11,12,12,12,12,12,12,12,12,12,12,12,12,12,12,12,12,12,12,12,12,12,12,12,12,12,12,12,13,13,13,13,13,13,13,13,13,13,13,13,13,13,13,13,14,14,14,14,14,14,14,14,14,14,14,14,14,14,14,14,14,14,14,15,15,15,15,15,15,15,15,15,15,15,15,15,15,15,15,15,15,15,15,15,15,15,16,16,16,16,16,16,16,16,16,16,16,16,16,16,16,16,16,16,16,16,16,16,17,17,17,17,17,17,17,17,17,17,17,17,17,17,17,18,18,18,18,18,18,18,18,18,18,18,18,18,18,18,18,18,18,18,19,19,19,19,19,19,19,19,19,19,19,19,19,19,19,19,19,19,19,20,20,20,20,20,20,20,20,20,20,20,20,20,20,20,20,20,20,20,21,21,21,21,21,21,21,21,21,21,21,21,21,21,21,22,22,22,22,22,22,22,22,22,22,22,22,22,22,22,22,23,23,23,23,23,23,23,23,23,23,23,23,23,23,23,23,24,24,24,24,24,24,24,24,24,24,24,24,24,24,24,25,25,25,25,25,25,25,25,25,25,25,25,25,25,25,26,26,26,26,26,26,26,26,26,26,26,26,27,27,27,27,27,27,27,27,27,28,28,28,28,28,28,28,28,28,29,29,29,29,29,29,29,29,29,29,29,30,30,30,30,30,30,30,30,31,31,31,31,31,31,31,31,31,32,32,32,32,32,32,32,33,33,33,33,33,33,34,34,34,34,34,35,35,35,35,36,36,36,36,37,37,38,38,39,39,40];
unsucc = [3,4,5,6,8,9,11,12,13,16,17,18,19,22,23,24,26,29,31,33,35,37,40,4,5,6,7,8,9,10,13,14,15,16,17,19,20,22,23,24,25,26,27,29,34,35,37,38,39,7,10,11,12,14,15,18,20,21,25,27,31,33,34,6,7,9,10,11,12,14,15,18,19,20,21,22,23,25,27,29,31,33,34,35,7,8,9,10,11,12,13,14,15,16,17,18,19,20,21,22,23,24,25,26,27,28,29,30,31,32,33,34,36,37,39,40,8,9,10,11,12,13,15,16,17,18,19,20,21,22,23,24,26,29,31,33,35,37,39,40,9,10,11,12,13,14,15,17,18,19,20,21,22,23,25,26,27,28,29,30,31,32,33,34,35,36,10,11,12,13,14,15,16,17,18,20,21,25,26,27,28,30,31,32,33,34,36,37,40,11,12,13,14,15,16,17,18,19,20,22,23,24,25,26,27,29,31,33,34,35,37,38,40,12,13,14,15,16,17,18,19,20,22,23,24,25,26,27,29,31,34,35,37,38,39,40,13,14,15,16,17,18,19,20,21,22,23,24,25,26,27,28,29,30,32,33,34,35,36,37,38,39,41,14,15,16,18,19,20,21,22,23,25,27,29,31,33,34,35,15,16,17,18,19,20,21,22,23,24,25,26,29,31,33,35,37,39,40,16,17,18,19,21,22,23,24,25,26,27,28,29,30,31,32,33,34,35,37,38,39,40,17,18,19,20,21,22,23,25,26,27,28,29,30,31,32,33,34,35,36,37,39,40,18,19,20,21,22,23,24,25,27,29,31,33,34,35,38,19,20,21,22,23,24,25,26,27,28,29,31,33,34,35,37,38,39,40,20,21,22,23,24,25,26,27,28,29,30,31,32,33,34,36,37,39,40,21,22,23,24,25,26,27,28,29,30,31,32,33,34,35,37,38,39,40,22,23,24,25,26,27,29,31,33,34,35,37,38,39,40,23,25,26,27,28,29,30,31,32,33,34,35,36,37,39,40,24,25,26,27,28,30,31,32,33,34,35,36,37,38,40,41,25,26,27,28,29,30,31,32,33,34,35,36,37,39,40,26,27,28,29,30,31,32,33,34,35,36,37,38,39,40,27,28,29,30,31,32,33,34,35,36,38,41,29,31,33,34,35,37,38,39,40,29,31,33,34,35,37,38,39,40,30,31,32,33,34,35,36,37,38,40,41,31,33,34,35,37,38,39,40,32,33,34,35,36,37,38,39,41,33,34,35,37,38,39,40,34,35,37,38,39,40,35,36,37,39,40,36,37,39,40,37,38,39,40,38,41,39,40,40,41,41];

USEFUL_RES = [{},
	{1,2,3,4,5,7,9,10,11,13,15,16,17,18,21,22,23,24,25,26,28,29,30},
	{1,2,3,4,5,6,8,9,10,11,13,14,16,17,18,19,21,22,23,24,25,26,27,28,29,30},
	{1,2,3,4,5,9,10,11,12,13,16,17,18,20,21,22,23,25,26,28,29,30},
	{1,2,3,4,5,6,8,9,10,11,13,14,16,17,18,19,21,22,23,24,25,26,27,28,29,30},
	{1,2,3,4,5,7,9,10,11,13,15,16,17,18,21,22,23,24,25,26,28,29,30},
	{1,2,3,4,5,7,9,10,11,12,13,15,16,17,18,20,21,22,23,24,25,26,29,30},
	{1,2,3,4,5,7,9,10,11,12,13,15,16,17,18,20,21,22,23,24,25,26,29,30},
	{1,2,3,4,5,9,10,11,12,13,16,17,18,20,21,22,23,25,26,28,29,30},
	{1,2,3,4,5,6,8,9,10,11,12,13,14,17,18,19,20,21,23,24,25,26,27,28,29,30},
	{1,2,3,4,6,7,8,10,11,13,14,15,16,17,18,19,21,22,23,24,25,27,28,29},
	{1,2,3,4,5,7,9,10,11,12,13,15,16,17,18,20,21,22,23,24,25,26,29,30},
	{1,2,3,4,5,7,9,10,11,12,13,15,16,17,18,20,21,22,23,24,25,26,29,30},
	{1,2,3,4,5,7,9,10,11,12,13,15,16,17,18,20,21,22,23,24,25,26,29,30},
	{1,2,3,4,5,9,10,11,12,13,16,17,18,20,21,22,23,25,26,28,29,30},
	{1,2,3,4,5,7,9,10,11,12,13,15,16,17,18,20,21,22,23,24,25,26,29,30},
	{1,2,3,4,5,7,9,10,11,13,15,16,17,18,21,22,23,24,25,26,28,29,30},
	{1,2,3,4,5,9,10,11,12,13,16,17,18,20,21,22,23,25,26,28,29,30},
	{1,2,3,4,5,9,10,11,12,13,16,17,18,20,21,22,23,25,26,28,29,30},
	{1,2,3,4,5,9,10,11,12,13,16,17,18,20,21,22,23,25,26,28,29,30},
	{1,2,3,4,5,6,8,9,10,11,12,13,14,17,18,19,20,21,23,24,25,26,27,28,29,30},
	{1,2,3,4,5,7,9,10,11,12,13,15,16,17,18,20,21,22,23,24,25,26,29,30},
	{1,2,3,4,5,7,9,10,11,12,13,15,16,17,18,20,21,22,23,24,25,26,29,30},
	{1,2,3,4,6,7,8,10,11,13,14,15,16,17,18,19,21,22,23,24,25,27,28,29},
	{1,2,3,4,5,6,8,9,10,11,12,13,14,17,18,19,20,21,23,24,25,26,27,28,29,30},
	{1,2,3,4,5,6,8,9,10,11,12,13,14,17,18,19,20,21,23,24,25,26,27,28,29,30},
	{1,2,3,4,6,7,8,10,11,13,14,15,16,17,18,19,21,22,23,24,25,27,28,29},
	{1,2,3,4,5,7,9,10,11,12,13,15,16,17,18,20,21,22,23,24,25,26,29,30},
	{1,2,3,4,6,7,8,10,11,13,14,15,16,17,18,19,21,22,23,24,25,27,28,29},
	{1,2,3,4,5,9,10,11,12,13,16,17,18,20,21,22,23,25,26,28,29,30},
	{1,2,3,4,5,7,9,10,11,12,13,15,16,17,18,20,21,22,23,24,25,26,29,30},
	{1,2,3,4,5,6,8,9,10,11,12,13,14,17,18,19,20,21,23,24,25,26,27,28,29,30},
	{1,2,3,4,5,7,9,10,11,12,13,15,16,17,18,20,21,22,23,24,25,26,29,30},
	{1,2,3,4,5,7,9,10,11,13,15,16,17,18,21,22,23,24,25,26,28,29,30},
	{1,2,3,4,5,7,9,10,11,12,13,15,16,17,18,20,21,22,23,24,25,26,29,30},
	{1,2,3,4,5,6,8,9,10,11,13,14,16,17,18,19,21,22,23,24,25,26,27,28,29,30},
	{1,2,3,4,5,7,9,10,11,13,15,16,17,18,21,22,23,24,25,26,28,29,30},
	{1,2,3,4,5,6,8,9,10,11,12,13,14,17,18,19,20,21,23,24,25,26,27,28,29,30},
	{1,2,3,4,5,7,9,10,11,12,13,15,16,17,18,20,21,22,23,24,25,26,29,30},
	{1,2,3,4,5,6,8,9,10,11,13,14,16,17,18,19,21,22,23,24,25,26,27,28,29,30},
	{1,2,3,4,6,7,8,10,11,13,14,15,16,17,18,19,21,22,23,24,25,27,28,29},
	{}];

POTENTIAL_ACT = [{2,3,4,5,6,7,8,9,10,11,12,13,14,15,16,17,18,19,20,21,22,23,24,25,26,27,28,29,30,31,32,33,34,35,36,37,38,39,40,41},
	{2,3,4,5,6,7,8,9,10,11,12,13,14,15,16,17,18,19,20,21,22,23,24,25,26,27,28,29,30,31,32,33,34,35,36,37,38,39,40,41},
	{2,3,4,5,6,7,8,9,10,11,12,13,14,15,16,17,18,19,20,21,22,23,24,25,26,27,28,29,30,31,32,33,34,35,36,37,38,39,40,41},
	{2,3,4,5,6,7,8,9,10,11,12,13,14,15,16,17,18,19,20,21,22,23,24,25,26,27,28,29,30,31,32,33,34,35,36,37,38,39,40,41},
	{2,3,4,5,6,7,8,9,10,12,13,14,15,16,17,18,19,20,21,22,23,25,26,28,30,31,32,33,34,35,36,37,38,39,40},
	{3,5,10,11,21,24,25,26,27,29,32,36,38,40,41},
	{2,6,7,8,11,12,13,14,16,17,22,23,24,27,28,29,31,33,34,35,37,39,41},
	{3,5,10,11,21,24,25,26,27,29,32,36,38,40,41},
	{2,3,4,5,6,7,8,9,10,12,13,14,15,16,17,18,19,20,21,22,23,25,26,28,30,31,32,33,34,35,36,37,38,39,40},
	{2,3,4,5,6,7,8,9,10,11,12,13,14,15,16,17,18,19,20,21,22,23,24,25,26,27,28,29,30,31,32,33,34,35,36,37,38,39,40,41},
	{2,3,4,5,6,7,8,9,10,11,12,13,14,15,16,17,18,19,20,21,22,23,24,25,26,27,28,29,30,31,32,33,34,35,36,37,38,39,40,41},
	{4,7,8,9,10,12,13,14,15,16,18,19,20,21,22,23,25,26,28,30,31,32,33,35,38,39},
	{2,3,4,5,6,7,8,9,10,11,12,13,14,15,16,17,18,19,20,21,22,23,24,25,26,27,28,29,30,31,32,33,34,35,36,37,38,39,40,41},
	{3,5,10,11,21,24,25,26,27,29,32,36,38,40,41},
	{2,6,7,8,11,12,13,14,16,17,22,23,24,27,28,29,31,33,34,35,37,39,41},
	{2,3,4,5,6,7,8,9,11,12,13,14,15,16,17,18,19,20,22,23,24,27,28,29,30,31,33,34,35,36,37,39,40,41},
	{2,3,4,5,6,7,8,9,10,11,12,13,14,15,16,17,18,19,20,21,22,23,24,25,26,27,28,29,30,31,32,33,34,35,36,37,38,39,40,41},
	{2,3,4,5,6,7,8,9,10,11,12,13,14,15,16,17,18,19,20,21,22,23,24,25,26,27,28,29,30,31,32,33,34,35,36,37,38,39,40,41},
	{3,5,10,11,21,24,25,26,27,29,32,36,38,40,41},
	{4,7,8,9,10,12,13,14,15,16,18,19,20,21,22,23,25,26,28,30,31,32,33,35,38,39},
	{2,3,4,5,6,7,8,9,10,11,12,13,14,15,16,17,18,19,20,21,22,23,24,25,26,27,28,29,30,31,32,33,34,35,36,37,38,39,40,41},
	{2,3,4,5,6,7,8,9,11,12,13,14,15,16,17,18,19,20,22,23,24,27,28,29,30,31,33,34,35,36,37,39,40,41},
	{2,3,4,5,6,7,8,9,10,11,12,13,14,15,16,17,18,19,20,21,22,23,24,25,26,27,28,29,30,31,32,33,34,35,36,37,38,39,40,41},
	{2,3,5,6,7,8,10,11,12,13,14,16,17,21,22,23,24,25,26,27,28,29,31,32,33,34,35,36,37,38,39,40,41},
	{2,3,4,5,6,7,8,9,10,11,12,13,14,15,16,17,18,19,20,21,22,23,24,25,26,27,28,29,30,31,32,33,34,35,36,37,38,39,40,41},
	{2,3,4,5,6,7,8,9,10,12,13,14,15,16,17,18,19,20,21,22,23,25,26,28,30,31,32,33,34,35,36,37,38,39,40},
	{3,5,10,11,21,24,25,26,27,29,32,36,38,40,41},
	{2,3,4,5,6,9,10,11,15,17,18,19,20,21,24,25,26,27,29,30,32,34,36,37,38,40,41},
	{2,3,4,5,6,7,8,9,10,11,12,13,14,15,16,17,18,19,20,21,22,23,24,25,26,27,28,29,30,31,32,33,34,35,36,37,38,39,40,41},
	{2,3,4,5,6,7,8,9,10,12,13,14,15,16,17,18,19,20,21,22,23,25,26,28,30,31,32,33,34,35,36,37,38,39,40}];
